(declare-const x String)
(declare-const y String)
(assert (str.in.re x (re.* (re.++ (re.+ (str.to.re "l}=d")) (str.to.re "a")))))
(assert (= (str.len x) 0))
(assert (not (= x "b{D^gbi@x3")))
(assert (not (= x "bJ-{kD/aUZ:\\)_#[t")))
(assert (not (= x "[Lw9ntabK?D")))
(check-sat)
(get-model)
